50 1345

18 18
72 72
29 29
94 94
92 92
93 93
33 33
72 72
55 55
8 8
32 32
16 16
82 82
85 85
55 55
27 27
88 88
5 5
8 8
67 67
33 33
50 50
55 55
13 13
96 96
36 36
79 79
41 41
51 51
61 61
34 34
46 46
90 90
81 81
74 74
81 81
83 83
47 47
31 31
86 86
97 97
36 36
86 86
17 17
72 72
30 30
82 82
17 17
49 49
6 6
